2	25
506	465	723	237	59	16	210	71	911	329	833	366	538	906	773	941	506	715	698	59	825	417	449	281	718	
52	752	124	61	902	958	611	340	474	229	620	544	189	428	480	899	352	689	194	592	186	121	493	648	912	
2963	2963	
